% File represents an instance of a Composite Structure problem to be solved by a CP framework
% Created on 2025-03-26 10:41:22.776
T = 50;
n = 16;
m = 24;
edges = [(1, 2),
(5, 6),
(9, 10),
(13, 14),
(2, 3),
(6, 7),
(10, 11),
(14, 15),
(3, 4),
(7, 8),
(11, 12),
(15, 16),
(5, 1),
(9, 5),
(9, 13),
(6, 2),
(10, 6),
(10, 14),
(7, 3),
(11, 7),
(11, 15),
(8, 4),
(12, 8),
(12, 16)];
counts = [|14, 2, 14, 8,
|12, 2, 12, 8,
|10, 2, 10, 6,
|10, 2, 10, 2,
|14, 4, 14, 12,
|12, 4, 12, 10,
|10, 4, 10, 10,
|10, 2, 10, 6,
|14, 6, 14, 16,
|12, 6, 12, 14,
|12, 4, 12, 10,
|12, 2, 12, 6,
|14, 4, 14, 12,
|12, 4, 12, 12,
|12, 4, 12, 6,
|12, 2, 12, 2|];
